200
1000
209
208
207
206
205
204
204
204
204
202
201
198
198
198
197
197
196
195
189
189
189
189
187
187
186
186
186
186
185
183
182
181
181
177
176
176
176
175
173
172
171
168
167
166
164
164
163
162
161
159
159
159
159
157
157
156
155
155
153
153
152
152
152
150
149
148
147
147
146
142
141
140
137
134
132
131
131
129
128
128
127
125
125
124
124
122
119
119
118
118
117
113
111
111
111
111
111
109
109
109
108
108
107
106
106
105
105
105
104
103
102
102
100
99
99
98
96
96
94
91
90
90
89
87
87
86
83
81
80
79
79
78
78
74
72
72
72
71
71
70
70
70
69
67
63
62
60
58
57
57
57
55
55
54
53
53
53
51
51
51
49
48
45
45
45
45
44
43
43
40
37
37
36
36
36
35
34
34
33
30
30
30
29
29
27
26
26
24
24
23
22
22
22
22
21
20
18
18
16
14
